data/evidence/ss_sat/proofs/scaled_cadical_drat/xor_parity_6_unsat.cadical.drat
-2 6 4 3 5 0
5 6 4 3 0
-1 6 4 3 -5 0
3 6 4 0
2 6 3 -5 -4 0
3 6 -4 -5 0
-1 6 -4 5 3 0
3 6 0
2 6 5 -4 -3 0
-3 6 -4 5 0
-2 6 4 -3 5 0
-3 6 5 0
2 6 4 -3 -5 0
-5 6 4 -3 0
-2 6 -5 -3 -4 0
6 0
2 -4 -6 -5 -3 0
-5 -4 -3 -6 0
-2 -4 -5 3 -6 0
-5 -4 -6 0
2 -4 3 5 -6 0
3 -4 5 -6 0
-2 -4 5 -3 -6 0
-4 -6 0
-4 0
2 -3 4 5 -6 0
5 -3 4 -6 0
-2 -3 4 -5 -6 0
-3 4 -6 0
-3 0
2 -5 3 4 -6 0
-5 4 3 -6 0
-5 0
-2 4 3 5 -6 0
-2 0
-1 0
0
d -2 6 4 3 5 0
d 5 6 4 3 0
d -1 6 4 3 -5 0
d 3 6 4 0
d 2 6 3 -5 -4 0
d 3 6 -4 -5 0
d -1 6 -4 5 3 0
d 3 6 0
d 2 6 5 -4 -3 0
d -3 6 -4 5 0
d -2 6 4 -3 5 0
d -3 6 5 0
d 2 6 4 -3 -5 0
d -5 6 4 -3 0
d -2 6 -5 -3 -4 0
d 2 -4 -6 -5 -3 0
d -5 -4 -3 -6 0
d -2 -4 -5 3 -6 0
d -5 -4 -6 0
d 2 -4 3 5 -6 0
d 3 -4 5 -6 0
d -2 -4 5 -3 -6 0
d -4 -6 0
d 2 -3 4 5 -6 0
d 5 -3 4 -6 0
d -2 -3 4 -5 -6 0
d -3 4 -6 0
d 2 -5 3 4 -6 0
d -5 4 3 -6 0
d -2 4 3 5 -6 0
