data/evidence/ss_sat/proofs/scaled_cadical_lrat/xor_parity_6_unsat.cadical.lrat
65 -2 6 4 3 5 0 17 49 0
66 5 6 4 3 0 65 1 33 0
67 -1 6 4 3 -5 0 35 51 0
68 3 6 4 0 66 67 19 3 0
69 2 6 3 -5 -4 0 39 7 0
70 3 6 -4 -5 0 69 23 55 0
71 -1 6 -4 5 3 0 37 53 0
72 3 6 0 68 70 71 21 5 0
73 2 6 5 -4 -3 0 13 45 0
74 -3 6 -4 5 0 73 29 61 0
75 -2 6 4 -3 5 0 57 25 0
76 -3 6 5 0 74 75 41 9 0
77 2 6 4 -3 -5 0 43 11 0
78 -5 6 4 -3 0 77 59 27 0
79 -2 6 -5 -3 -4 0 31 63 0
80 6 0 72 76 78 79 47 15 0
81 2 -4 -6 -5 -3 0 48 16 0
82 -5 -4 -3 -6 0 81 64 32 0
83 -2 -4 -5 3 -6 0 24 56 0
84 -5 -4 -6 0 82 83 8 40 0
85 2 -4 3 5 -6 0 6 38 0
86 3 -4 5 -6 0 85 22 54 0
87 -2 -4 5 -3 -6 0 62 30 0
88 -4 -6 0 84 86 87 46 14 0
89 -4 0 80 88 0
90 2 -3 4 5 -6 0 42 10 0
91 5 -3 4 -6 0 90 58 26 0
92 -2 -3 4 -5 -6 0 60 28 0
93 -3 4 -6 0 91 92 44 12 0
94 -3 0 80 89 93 0
95 2 -5 3 4 -6 0 4 36 0
96 -5 4 3 -6 0 95 20 52 0
97 -5 0 80 94 89 96 0
98 -2 4 3 5 -6 0 18 50 0
99 -2 0 80 97 94 89 98 0
100 -1 0 80 97 94 89 99 34 0
101 0 80 97 94 89 99 100 2 0
